50
400 400
1 320 3
2 317 316
3 313 729
4 308 127
5 305 957
6 302 275
7 301 298
8 300 936
9 295 41
10 270 39
11 267 421
12 267 805
13 265 908
14 262 674
15 260 427
16 255 481
17 251 938
18 250 18
19 246 989
20 244 827
21 243 850
22 240 638
23 234 807
24 228 990
25 227 988
26 223 537
27 222 183
28 205 775
29 194 156
30 190 646
31 179 961
32 173 125
33 168 629
34 161 38
35 160 75
36 156 105
37 153 856
38 146 371
39 125 146
40 119 859
41 108 573
42 97 669
43 74 672
44 72 675
45 61 323
46 53 786
47 48 668
48 47 30
49 45 606
50 40 526
